c graph4
p edge 25 65
e 1 6
e 2 1
e 3 4
e 4 12
e 5 8
e 6 19
e 7 17
e 8 18
e 9 24
e 10 17
e 11 17
e 12 3
e 13 25
e 14 6
e 15 21
e 16 24
e 17 24
e 18 13
e 19 17
e 20 18
e 21 10
e 22 14
e 23 8
e 24 25
e 25 22
e 9 23
e 10 20
e 16 21
e 8 16
e 16 17
e 5 7
e 2 24
e 18 16
e 19 11
e 13 1
e 1 7
e 8 14
e 13 16
e 10 16
e 16 22
e 16 11
e 20 8
e 18 11
e 7 23
e 2 9
e 23 12
e 4 9
e 12 21
e 17 8
e 9 1
e 22 23
e 2 6
e 8 3
e 7 25
e 23 19
e 21 13
e 1 24
e 16 15
e 25 8
e 19 24
e 5 10
e 15 7
e 11 3
e 3 7
e 2 21
